0 5 47
1 43 47
2 43 49
3 48 50
4 4 48
5 48 50
6 46 49
7 42 50
8 44 48
9 46 46
10 43 43
11 33 43
12 31 42
13 42 43
14 28 41
15 1 42
16 44 45
17 40 47
18 36 47
19 15 50
20 45 50
21 44 49
22 46 49
23 46 48
24 43 46
25 44 45
26 46 46
27 44 45
28 44 45
29 40 47
30 45 46
31 40 47
32 42 45
33 39 43
34 40 41
35 41 41
36 30 39
37 28 38
38 38 38
39 35 37
40 32 35
41 23 37
42 33 35
43 21 34
44 30 35
45 33 34
46 27 34
47 32 32
48 29 31
49 23 29
50 32 32
51 26 30
52 21 26
53 22 25
54 21 26
55 24 25
56 15 23
57 19 23
58 18 21
59 11 20
60 18 21
61 15 19
62 15 17
63 17 18
64 15 18
65 14 17
66 13 16
67 11 15
68 9 14
69 12 13
70 6 12
71 12 12
72 11 11
73 4 10
74 9 9
75 5 8
76 8 8
77 4 7
78 3 5
79 2 3
80 2 6
81 3 6
82 5 5
83 3 4
84 4 4
85 1 3
86 2 3
87 3 3
88 1 3
89 1 1

